n_res = 4;
rcap = [28, 21, 93, 77];
rtype = [1, 1, 2, 2];
n_tasks = 14;
modes = [ {1, 2, 3}, {4, 5, 6}, {7, 8, 9}, {10, 11, 12}, {13, 14, 15}, {16, 17, 18}, {19, 20, 21}, {22, 23, 24}, {25, 26, 27}, {28, 29, 30}, {31, 32, 33}, {34, 35, 36}, {37, 38, 39}, {40, 41, 42} ];
succ = [ {4, 6, 8}, {5, 9}, {13}, {5, 7, 10}, {11, 14}, {7, 9, 11}, {14}, {9, 11, 14}, {10, 13}, {12}, {12, 13}, {}, {}, {} ];
n_opt = 42;
dur = [4, 4, 6, 2, 4, 4, 5, 5, 10, 2, 8, 8, 6, 8, 10, 1, 5, 5, 4, 7, 9, 4, 7, 8, 2, 5, 10, 2, 5, 7, 1, 3, 6, 2, 5, 5, 2, 7, 10, 2, 4, 5];
rreq = [|  0,  9,  8,  6,  0,  6,  0,  0,  6, 10,  5,  0,  0,  0,  0,  6,  5,  0,  5,  3,  0,  0,  6,  0,  0,  0,  0,  0,  9,  0,  7,  6,  0,  0,  0,  7,  4,  0,  0,  5,  4,  2
        |  6,  0,  0,  0,  8,  0,  4,  7,  0,  0,  0,  4,  8,  8,  7,  0,  0,  2,  0,  0,  5,  7,  0,  5,  5,  4,  1,  7,  0,  6,  0,  0,  7,  9,  6,  0,  0,  4,  3,  0,  0,  0
        |  6,  5,  5,  7,  6,  4, 10,  9,  6,  8,  5,  5,  8,  8,  8,  9,  5,  7,  6,  5,  5,  6,  6,  3,  7,  6,  5,  9,  8,  7,  8,  4,  4,  6,  5,  4,  2,  2,  2,  8,  8,  7
        |  6,  9,  4,  6,  4,  4, 10,  8,  7,  2,  1,  2,  8,  4,  3,  6,  5,  6,  5,  5,  5,  5,  4,  2,  4,  4,  3,  4,  4,  3,  6,  5,  5,  3,  3,  3,  8,  6,  6,  8,  6,  3 |];
